N = 8;
H = 6;
T = 2;

avail = array3d(1..N, 1..H, 1..T, [0, 2, 2, 8, 3, 7, 4, 0, 1, 7, 3, 6, 6, 5, 9, 3, 9, 5, 8, 2, 10, 7, 8, 6, 10, 3, 7, 2, 0, 10, 3, 2, 10, 2, 3, 5, 4, 1, 1, 10, 4, 7, 5, 0, 6, 9, 1, 5, 1, 10, 9, 4, 4, 1, 2, 6, 4, 0, 5, 5, 3, 7, 6, 5, 3, 0, 4, 3, 5, 5, 4, 9, 10, 9, 7, 6, 5, 6, 3, 2, 1, 4, 2, 7, 1, 8, 10, 2, 4, 8, 6, 4, 2, 4, 1, 7]);

r = array2d(1..H, 1..T, [1, 3, 1, 1, 4, 2, 0, 1, 2, 3, 2, 2]);
